letting n_nurses=25
letting n_days=7
letting n_shift_types=4
letting max_covers=14
letting t_covers=87
letting covers=[9,11,0,0,6,11,0,0,6,2,1,0,0,0,0,0,9,11,0,0,0,0,0,0,5,14,2,0]
letting prefes=[3,3,3,1,2,1,1,2,2,1,1,2,3,3,3,1,3,3,3,1,2,1,1,2,3,3,3,1,2,3,3,1,1,1,1,1,1,1,1,1,2,3,3,1,2,3,3,1,1,1,1,1,2,3,3,1,3,1,3,1,2,1,1,2,2,1,1,2,3,1,3,1,3,1,3,1,2,1,1,2,3,1,3,1,3,3,3,3,1,1,1,1,1,1,1,1,3,3,3,3,3,3,3,3,1,1,1,1,3,3,3,3,3,3,3,3,2,1,1,2,2,1,1,2,3,3,3,3,3,3,3,3,2,1,1,2,3,3,3,3,3,3,3,3,2,4,4,2,2,4,4,2,3,3,3,3,3,3,3,3,2,4,4,2,3,3,3,3,3,1,3,3,2,1,1,2,2,1,1,2,3,1,3,3,3,1,3,3,2,1,1,2,3,1,3,3,3,3,3,3,2,1,1,2,2,1,1,2,3,3,3,3,3,3,3,3,2,1,1,2,3,3,3,3,3,3,1,3,2,1,1,2,2,1,1,2,3,3,1,3,3,3,1,3,2,1,1,2,3,3,1,3,3,3,3,3,2,4,4,2,2,4,4,2,3,3,3,3,3,3,3,3,2,4,4,2,3,3,3,3,3,1,3,3,2,1,1,2,2,1,1,2,3,1,3,3,3,1,3,3,2,1,1,2,3,1,3,3,2,3,1,3,2,1,1,2,2,1,1,2,2,3,1,3,2,3,1,3,2,1,1,2,2,3,1,3,3,3,3,3,2,1,1,2,2,1,1,2,3,3,3,3,3,3,3,3,2,1,1,2,3,3,3,3,2,3,3,3,2,1,1,2,2,1,1,2,2,3,3,3,2,3,3,3,2,1,1,2,2,3,3,3,2,3,1,3,1,1,1,1,1,1,1,1,2,3,1,3,2,3,1,3,1,1,1,1,2,3,1,3,3,3,1,3,2,1,1,2,2,1,1,2,3,3,1,3,3,3,1,3,2,1,1,2,3,3,1,3,2,3,3,3,2,1,1,2,2,1,1,2,2,3,3,3,2,3,3,3,2,1,1,2,2,3,3,3,3,1,3,3,2,4,4,2,2,4,4,2,3,1,3,3,3,1,3,3,2,4,4,2,3,1,3,3,3,3,3,3,2,1,1,2,2,1,1,2,3,3,3,3,3,3,3,3,2,1,1,2,3,3,3,3,3,3,1,3,2,1,1,2,2,1,1,2,3,3,1,3,3,3,1,3,2,1,1,2,3,3,1,3,3,3,3,3,2,4,4,2,2,4,4,2,3,3,3,3,3,3,3,3,2,4,4,2,3,3,3,3,3,3,3,1,1,1,1,1,1,1,1,1,3,3,3,1,3,3,3,1,1,1,1,1,3,3,3,1,3,1,3,3,2,4,4,2,2,4,4,2,3,1,3,3,3,1,3,3,2,4,4,2,3,1,3,3,3,3,3,3,1,1,1,1,1,1,1,1,3,3,3,3,3,3,3,3,1,1,1,1,3,3,3,3,3,3,3,1,2,1,1,2,2,1,1,2,3,3,3,1,3,3,3,1,2,1,1,2,3,3,3,1]
letting ub =  316
